(set-logic LIA) (define-fun qm ((a Int) (b Int)) Int (ite (< a 0) b a)) (synth-fun qm-choose ((x Int) (y Int) (z Int)) Int) (declare-var x Int) (declare-var y Int) (declare-var z Int) (constraint (= (qm-choose x y z) (ite (<= x 0) y z))) (check-synth)
